1 2 30
1166
  1.1   0.4  34.9 13663.7   0.0
  0.3 4554.6  98.6
  0.4 6521.4 141.2
 1083
  505
 1355
  975
 1232
  711
  839
  537
  712
  949
 1321
  650
 1062
 1045
 1112
 1068
  606
  599
  756
 1495
 1486
 1412
 1186
 1443
 1011
  505
 1007
  910
 1109
 1464
